
Gurobi 6.5.0 (linux64) logging started Tue Apr 26 21:54:53 2016


Gurobi 6.5.0 (linux64) logging started Tue Apr 26 21:55:18 2016


Gurobi 6.5.0 (linux64) logging started Tue Apr 26 21:58:01 2016


Gurobi 6.5.0 (linux64) logging started Tue Apr 26 22:01:57 2016


Gurobi 6.5.0 (linux64) logging started Tue Apr 26 22:03:32 2016


Gurobi 6.5.0 (linux64) logging started Tue Apr 26 22:10:55 2016

Optimize a model with 257 rows, 50373 columns and 50372 nonzeros
Coefficient statistics:
  Matrix range    [1e+00, 1e+00]
  Objective range [1e+00, 1e+00]
  Bounds range    [1e+00, 1e+00]
  RHS range       [1e+00, 1e+00]
Found heuristic solution: objective -0
Presolve removed 257 rows and 50373 columns
Presolve time: 0.02s
Presolve: All rows and columns removed

Explored 0 nodes (0 simplex iterations) in 0.02 seconds
Thread count was 1 (of 4 available processors)

Optimal solution found (tolerance 1.00e-04)
Best objective -0.000000000000e+00, best bound -0.000000000000e+00, gap 0.0%

Gurobi 6.5.0 (linux64) logging started Tue Apr 26 22:14:11 2016

Optimize a model with 257 rows, 50373 columns and 50372 nonzeros
Coefficient statistics:
  Matrix range    [1e+00, 1e+00]
  Objective range [1e+00, 1e+00]
  Bounds range    [1e+00, 1e+00]
  RHS range       [1e+00, 1e+00]
Found heuristic solution: objective -0
Presolve removed 257 rows and 50373 columns
Presolve time: 0.02s
Presolve: All rows and columns removed

Explored 0 nodes (0 simplex iterations) in 0.02 seconds
Thread count was 1 (of 4 available processors)

Optimal solution found (tolerance 1.00e-04)
Best objective -0.000000000000e+00, best bound -0.000000000000e+00, gap 0.0%

Gurobi 6.5.0 (linux64) logging started Tue Apr 26 22:15:55 2016


Gurobi 6.5.0 (linux64) logging started Wed Apr 27 15:15:30 2016


Gurobi 6.5.0 (linux64) logging started Wed Apr 27 15:16:36 2016


Gurobi 6.5.0 (linux64) logging started Wed Apr 27 15:17:08 2016

